SCIP Status        : solving was interrupted [time limit reached]
Total Time         :    3600.01
  solving          :    3600.00
  presolving       :       0.47 (included in solving)
  reading          :       0.01
  copying          :       0.80 (71 #copies) (minimal 0.00, maximal 0.02, average 0.01)
Original Problem   :
  Problem name     : bbbenchmark/pw09_100.6.cut
  Variables        : 101 (100 binary, 0 integer, 0 implicit integer, 1 continuous)
  Constraints      : 1 initial, 1 maximal
  Objective        : minimize, 1 non-zeros (abs.min = 1, abs.max = 1)
Presolved Problem  :
  Problem name     : t_bbbenchmark/pw09_100.6.cut
  Variables        : 1330 (100 binary, 0 integer, 1181 implicit integer, 49 continuous)
  Constraints      : 1326 initial, 4202 maximal
  Objective        : minimize, 1 non-zeros (abs.min = 1, abs.max = 1)
  Nonzeros         : 11661 constraint, 202 clique table
Presolvers         :   ExecTime  SetupTime  Calls  FixedVars   AggrVars   ChgTypes  ChgBounds   AddHoles    DelCons    AddCons   ChgSides   ChgCoefs
  boundshift       :       0.00       0.00      0          0          0          0          0          0          0          0          0          0
  convertinttobin  :       0.00       0.00      0          0          0          0          0          0          0          0          0          0
  domcol           :       0.00       0.00      1          0          0          0          0          0          0          0          0          0
  dualagg          :       0.00       0.00      0          0          0          0          0          0          0          0          0          0
  dualcomp         :       0.00       0.00      1          0          0          0          0          0          0          0          0          0
  dualinfer        :       0.00       0.00      0          0          0          0          0          0          0          0          0          0
  dualsparsify     :       0.00       0.00      1          0          0          0          0          0          0          0          0          0
  gateextraction   :       0.00       0.00      0          0          0          0          0          0          0          0          0          0
  implics          :       0.00       0.00      2          0          0          0          0          0          0          0          0          0
  inttobinary      :       0.00       0.00      0          0          0          0          0          0          0          0          0          0
  qpkktref         :       0.00       0.00      0          0          0          0          0          0          0          0          0          0
  redvub           :       0.00       0.00      0          0          0          0          0          0          0          0          0          0
  sparsify         :       0.00       0.00      1          0          0          0          0          0          0          0          0          0
  stuffing         :       0.00       0.00      0          0          0          0          0          0          0          0          0          0
  trivial          :       0.00       0.00      4          0          0          0          0          0          0          0          0          0
  tworowbnd        :       0.00       0.00      0          0          0          0          0          0          0          0          0          0
  dualfix          :       0.00       0.00      4          0          0          0          0          0          0          0          0          0
  genvbounds       :       0.00       0.00      0          0          0          0          0          0          0          0          0          0
  probing          :       0.24       0.00      1          0          0          0          0          0          0          0          0          0
  pseudoobj        :       0.00       0.00      1          0          0          0          1          0          0          0          0          0
  symmetry         :       0.00       0.00      0          0          0          0          0          0          0          0          0          0
  vbounds          :       0.00       0.00      1          0          0          0          0          0          0          0          0          0
  varbound         :       0.00       0.00      2          0          0          0          0          0          0          0          0          0
  and              :       0.00       0.01      2          0          0          0          0          0          0          0          0          0
  linear           :       0.01       0.00      2          0          0          0          0          0          0          0          0          0
  logicor          :       0.00       0.00      0          0          0          0          0          0          0          0          0          0
  bounddisjunction :       0.00       0.00      0          0          0          0          0          0          0          0          0          0
  nonlinear        :       0.21       0.01      5          0          0          0          1          0          0       1325          0          0
  benders          :       0.00       0.00      0          0          0          0          0          0          0          0          0          0
  components       :       0.00       0.00      1          0          0          0          0          0          0          0          0          0
  root node        :          -          -      -          0          -          -          8          -          -          -          -          -
Constraints        :     Number  MaxNumber  #Separate #Propagate    #EnfoLP    #EnfoRelax  #EnfoPS    #Check   #ResProp    Cutoffs    DomReds       Cuts    Applied      Conss   Children
  benderslp        :          0          0          0          0     455252          0          0      43855          0          0          0          0          0          0          0
  integral         :          0          0          0          0     455252          0          0      43855          0          0         15          0          0          0     910482
  varbound         :         48         48         34    2115463          0          0          0       4747         15          0     334603          0          0          0          0
  and              :       1181       1181     546185    2130408          0          0          0       2906     254233          2    4199443       3028       2486          0          0
  linear           :         97+       134         34    2132825          0          0          0       2904      36062        544    8896493          0          0          0          0
  logicor          :          0+      1115          0     139758          0          0          0          0         16        269         12          0          0          0          0
  bounddisjunction :          0+      1786          0     242933          0          0          0          0         10         47          1          0          0          0          0
  benders          :          0          0          0          0          0          0          0        107          0          0          0          0          0          0          0
  countsols        :          0          0          0          0          0          0          0        107          0          0          0          0          0          0          0
  components       :          0          0          0          0          0          0          0          0          0          0          0          0          0          0          0
Constraint Timings :  TotalTime  SetupTime   Separate  Propagate     EnfoLP     EnfoPS     EnfoRelax   Check    ResProp    SB-Prop
  benderslp        :       0.46       0.00       0.00       0.00       0.42       0.00       0.00       0.04       0.00       0.00
  integral         :      91.14       0.00       0.00       0.00      90.89       0.00       0.00       0.25       0.00       0.00
  varbound         :       4.07       0.00       0.00       4.06       0.00       0.00       0.00       0.01       0.00       0.00
  and              :     214.90       0.01     162.28      51.64       0.00       0.00       0.00       0.71       0.13       0.13
  linear           :      50.95       0.00       0.01      50.71       0.00       0.00       0.00       0.01       0.17       0.05
  logicor          :       4.25       0.00       0.00       4.25       0.00       0.00       0.00       0.00       0.00       0.00
  bounddisjunction :       8.89       0.00       0.00       8.89       0.00       0.00       0.00       0.00       0.00       0.00
  benders          :       0.00       0.00       0.00       0.00       0.00       0.00       0.00       0.00       0.00       0.00
  countsols        :       0.00       0.00       0.00       0.00       0.00       0.00       0.00       0.00       0.00       0.00
  components       :       0.47       0.00       0.00       0.47       0.00       0.00       0.00       0.00       0.00       0.00
Propagators        : #Propagate   #ResProp    Cutoffs    DomReds
  dualfix          :          2          0          0          0
  genvbounds       :          0          0          0          0
  nlobbt           :          0          0          0          0
  obbt             :          0          0          0          0
  probing          :          0          0          0          0
  pseudoobj        :    2169358          3          0       3793
  redcost          :    1068813          0          0     555360
  rootredcost      :          6          0          0          0
  symmetry         :          0          0          0          0
  vbounds          :     468837          0          0          0
Propagator Timings :  TotalTime  SetupTime   Presolve  Propagate    ResProp    SB-Prop
  dualfix          :       0.00       0.00       0.00       0.00       0.00       0.00
  genvbounds       :       1.53       0.00       0.00       1.53       0.00       0.00
  nlobbt           :       0.00       0.00       0.00       0.00       0.00       0.00
  obbt             :       0.00       0.00       0.00       0.00       0.00       0.00
  probing          :       0.24       0.00       0.24       0.00       0.00       0.00
  pseudoobj        :       3.12       0.00       0.00       3.12       0.00       0.00
  redcost          :      51.98       0.00       0.00      51.98       0.00       0.00
  rootredcost      :       1.87       0.00       0.00       1.87       0.00       0.00
  symmetry         :       0.95       0.00       0.00       0.95       0.00       0.00
  vbounds          :       2.07       0.00       0.00       2.06       0.00       0.01
Conflict Analysis  :       Time      Calls    Success    DomReds  Conflicts   Literals    Reconvs ReconvLits   Dualrays   Nonzeros   LP Iters   (pool size: [10000,10000])
  propagation      :       0.00        323        222          -        410       80.1          0        0.0          -          -          -
  infeasible LP    :       1.27       1609       1609          -       6994      132.8          0        0.0       2397      123.4          0
  bound exceed. LP :      16.57       4628       4376          -      79850      112.5          9       26.4          0        0.0      67352
  strong branching :       0.00          0          0          -          0        0.0          0        0.0          -          -          0
  pseudo solution  :       0.00          0          0          -          0        0.0          0        0.0          -          -          -
  applied globally :       0.29          -          -          0      19666      103.3          -          -       2397          -          -
  applied locally  :          -          -          -          0          0        0.0          -          -          0          -          -
Separators         :   ExecTime  SetupTime      Calls  RootCalls    Cutoffs    DomReds  FoundCuts ViaPoolAdd  DirectAdd    Applied ViaPoolApp  DirectApp      Conss
  cut pool         :       4.99          -      59361         57          -          -      31333    1085098          -          -          -          -          -    (maximal pool size:       1995)
  aggregation      :      82.98       0.00       5191         34          0          0       1559      39007          0      31361      31361          0          0
  > cmir           :          -          -          -          -          -          -          -      39003          0      31360      31360          0          -
  > flowcover      :          -          -          -          -          -          -          -          4          0          1          1          0          -
  > knapsackcover  :          -          -          -          -          -          -          -          0          0          0          0          0          -
  cgmip            :       0.00       0.00          0          0          0          0          0          0          0          0          0          0          0
  clique           :       0.00       0.00         34         34          0          0          0          0          0          0          0          0          0
  closecuts        :       0.00       0.00          0          0          0          0          0          0          0          0          0          0          0
  convexproj       :       0.00       0.00          0          0          0          0          0          0          0          0          0          0          0
  disjunctive      :       0.00       0.00          0          0          0          0          0          0          0          0          0          0          0
  eccuts           :       0.00       0.00          0          0          0          0          0          0          0          0          0          0          0
  gauge            :       0.00       0.00          0          0          0          0          0          0          0          0          0          0          0
  gomory           :       0.00       0.00          0          0          0          0          0          0          0          0          0          0          0
  > gomorymi       :          -          -          -          -          -          -          -          0          0          0          0          0          -
  > strongcg       :          -          -          -          -          -          -          -          0          0          0          0          0          -
  impliedbounds    :       0.50       0.00       5191         34          0          0          9          0          0          0          0          0          0
  interlattice     :       0.19       0.00          7          7          0          0          7          0          7          6          0          6          0
  interminor       :       0.00       0.00          0          0          0          0          0          0          0          0          0          0          0
  intersub         :       0.05       0.00          1          1          0          0          1          0          1          1          0          1          0
  intobj           :       0.00       0.00          0          0          0          0          0          0          0          0          0          0          0
  mcf              :       0.00       0.00          1          1          0          0          0          0          0          0          0          0          0
  minor            :       0.00       0.00          0          0          0          0          0          0          0          0          0          0          0
  mixing           :       0.03       0.00       5191         34          0          0          0          0          0          0          0          0          0
  oddcycle         :       0.00       0.00          0          0          0          0          0          0          0          0          0          0          0
  rapidlearning    :       0.05       0.00          0          0          0          0          0          0          0          0          0          0          0
  rlt              :       0.00       0.00         10         10          0          0          0          0          0          0          0          0          0
  zerohalf         :      24.69       0.00       4869         20          0          0      29765    1046091          0     264711     264711          0          0
Cutselectors       :   ExecTime  SetupTime      Calls  RootCalls   Selected     Forced   Filtered  RootSelec   RootForc   RootFilt 
  hybrid           :       0.87       0.00      35080         34     298565          0     789569        137          0         31
Pricers            :   ExecTime  SetupTime      Calls       Vars
  problem variables:       0.00          -          0          0
Branching Rules    :   ExecTime  SetupTime   BranchLP  BranchExt   BranchPS    Cutoffs    DomReds       Cuts      Conss   Children
  allfullstrong    :       0.00       0.00          0          0          0          0          0          0          0          0
  cloud            :       0.00       0.00          0          0          0          0          0          0          0          0
  distribution     :       0.00       0.00          0          0          0          0          0          0          0          0
  fullstrong       :       0.00       0.00          0          0          0          0          0          0          0          0
  inference        :       0.00       0.00          0          0          0          0          0          0          0          0
  leastinf         :       0.00       0.00          0          0          0          0          0          0          0          0
  lookahead        :       0.00       0.00          0          0          0          0          0          0          0          0
  mostinf          :       0.00       0.00          0          0          0          0          0          0          0          0
  multaggr         :       0.00       0.00          0          0          0          0          0          0          0          0
  nodereopt        :       0.00       0.00          0          0          0          0          0          0          0          0
  pscost           :       0.00       0.00          0          0          0          0          0          0          0          0
  random           :       0.00       0.00          0          0          0          0          0          0          0          0
  relpscost        :      89.58       0.00     455252          0          0          0         15          0          0     910482
  vanillafullstrong:       0.00       0.00          0          0          0          0          0          0          0          0
Primal Heuristics  :   ExecTime  SetupTime      Calls      Found       Best
  LP solutions     :       0.00          -          -          0          0
  relax solutions  :       0.00          -          -          0          0
  pseudo solutions :       0.00          -          -          0          0
  strong branching :       0.04          -          -          0          0
  actconsdiving    :       0.00       0.00          0          0          0
  adaptivediving   :       1.99       0.00         39          0          0
  alns             :       1.80       0.00         24          0          0
  bound            :       0.00       0.00          0          0          0
  clique           :       0.01       0.00          1          0          0
  coefdiving       :       0.00       0.00          0          0          0
  completesol      :       0.00       0.00          0          0          0
  conflictdiving   :     105.33       0.00        914          0          0
  crossover        :       2.54       0.00          4          0          0
  dins             :       0.00       0.00          0          0          0
  distributiondivin:      68.83       0.00        410          0          0
  dps              :       0.00       0.00          0          0          0
  dualval          :       0.00       0.00          0          0          0
  farkasdiving     :       0.02       0.00          0          0          0
  feaspump         :       0.30       0.00          7          1          0
  fixandinfer      :       0.00       0.00          0          0          0
  fracdiving       :      34.93       0.00        351          0          0
  gins             :       0.59       0.00          0          0          0
  guideddiving     :      36.71       0.00        367          2          2
  indicator        :       0.60       0.00          0          0          0
  indicatordiving  :       0.00       0.00          0          0          0
  intdiving        :       0.00       0.00          0          0          0
  intshifting      :       0.84       0.00        131          0          0
  linesearchdiving :      31.65       0.00        469          1          1
  localbranching   :       0.00       0.00          0          0          0
  locks            :       0.01       0.00          1          0          0
  lpface           :       0.50       0.00          0          0          0
  mpec             :      62.24       0.00         11          0          0
  multistart       :       0.00       0.00          0          0          0
  mutation         :       0.00       0.00          0          0          0
  nlpdiving        :      11.80       0.00          1          0          0
  objpscostdiving  :      30.08       0.00        120         13          1
  octane           :       0.00       0.00          0          0          0
  ofins            :       0.35       0.00          0          0          0
  oneopt           :       0.45       0.00          8          0          0
  padm             :       0.00       0.00          0          0          0
  proximity        :       0.00       0.00          0          0          0
  pscostdiving     :      34.91       0.00        255          1          1
  randrounding     :       2.53       0.00      43762          0          0
  rens             :       0.00       0.00          0          0          0
  reoptsols        :       0.00       0.00          0          0          0
  repair           :       0.00       0.00          0          0          0
  rins             :       4.56       0.00         42          0          0
  rootsoldiving    :      30.89       0.00        457         82          0
  rounding         :       2.67       0.00       9822          0          0
  shiftandpropagate:       0.00       0.00          0          0          0
  shifting         :      30.59       0.00      10737          1          1
  simplerounding   :       0.53       0.00          0          0          0
  subnlp           :     474.88       0.00          0          0          0
  trivial          :       0.01       0.00          2          2          2
  trivialnegation  :       0.00       0.00          0          0          0
  trustregion      :       0.00       0.00          0          0          0
  trysol           :       0.89       0.00          0          0          0
  twoopt           :       0.00       0.00          0          0          0
  undercover       :       4.23       0.00          1          1          1
  vbounds          :       0.00       0.00          0          0          0
  veclendiving     :      35.97       0.00        638          0          0
  zeroobj          :       0.00       0.00          0          0          0
  zirounding       :       0.73       0.00       1000          0          0
  other solutions  :          -          -          -          0          -
Diving (single)    :      Calls      Nodes   LP Iters Backtracks  Conflicts   MinDepth   MaxDepth   AvgDepth  RoundSols  NLeafSols  MinSolDpt  MaxSolDpt  AvgSolDpt
  actconsdiving    :          0          -          -          -          -          -          -          -          -          -          -          -          -
  coefdiving       :          0          -          -          -          -          -          -          -          -          -          -          -          -
  conflictdiving   :        914      40769    1044830        710      19174         62         89       77.6          0          -          -          -          -
  distributiondivin:        410      17922     354060        484       8319         61         93       73.7          0          -          -          -          -
  farkasdiving     :          0          -          -          -          -          -          -          -          -          -          -          -          -
  fracdiving       :        351      36964     355057        105       1536         70        509      133.9          0          -          -          -          -
  guideddiving     :        367      31912     374185         34       5646         70        252      115.9          0          2        117        118      117.5
  indicatordiving  :          0          -          -          -          -          -          -          -          -          -          -          -          -
  linesearchdiving :        469      27567     360024         27      12069         69        108       90.0          0          1         91         91       91.0
  pscostdiving     :        255      13038     372121        284       5876         67         95       80.2          0          1         86         86       86.0
  veclendiving     :        638      34697     350586        539      33362         70         97       83.8          0          -          -          -          -
Diving (adaptive)  :      Calls      Nodes   LP Iters Backtracks  Conflicts   MinDepth   MaxDepth   AvgDepth  RoundSols  NLeafSols  MinSolDpt  MaxSolDpt  AvgSolDpt
  actconsdiving    :          2         56        105          3         19         73         75       74.0          0          -          -          -          -
  coefdiving       :          6        340       2357          4        214         76         94       85.5          0          -          -          -          -
  conflictdiving   :          0          -          -          -          -          -          -          -          -          -          -          -          -
  distributiondivin:          0          -          -          -          -          -          -          -          -          -          -          -          -
  farkasdiving     :          0          -          -          -          -          -          -          -          -          -          -          -          -
  fracdiving       :          4        203       1283          0         24         80        139       96.0          0          -          -          -          -
  guideddiving     :          5        310       3675          1         99         78        102       92.6          0          -          -          -          -
  indicatordiving  :          0          -          -          -          -          -          -          -          -          -          -          -          -
  linesearchdiving :         15        670       7867          3        312         70         98       86.9          0          -          -          -          -
  pscostdiving     :          2         99       2141          3         48         81         81       81.0          0          -          -          -          -
  veclendiving     :          5        217       1723          2         59         72         93       81.6          0          -          -          -          -
Neighborhoods      :      Calls  SetupTime  SolveTime SolveNodes       Sols       Best       Exp3  EpsGreedy        UCB TgtFixRate  Opt  Inf Node Stal  Sol  Usr Othr Actv
  rens             :          2       0.02       0.10         57          0          0    0.00000   -1.00000    0.46525      0.850    0    1    0    1    0    0    0    1
  rins             :          3       0.05       0.10        153          0          0    0.00000   -1.00000    0.46525      0.900    0    1    0    2    0    0    0    1
  mutation         :          4       0.09       0.35        195          0          0    0.00000   -1.00000    0.46159      0.822    0    2    0    2    0    0    0    1
  localbranching   :          3       0.06       0.11        156          0          0    0.00000   -1.00000    0.46543      0.900    0    1    0    2    0    0    0    1
  crossover        :          4       0.07       0.14        142          0          0    0.00000   -1.00000    0.47049      0.822    0    2    0    2    0    0    0    1
  proximity        :          3       0.05       0.13        158          0          0    0.00000   -1.00000    0.46421      0.900    0    1    0    2    0    0    0    1
  zeroobjective    :          2       0.03       0.07        118          0          0    0.00000   -1.00000    0.45375      0.850    0    1    0    1    0    0    0    1
  dins             :          3       0.06       0.15        139          0          0    0.00000   -1.00000    0.46610      0.900    0    1    0    2    0    0    0    1
  trustregion      :          0       0.00       0.00          0          0          0    0.00000   -1.00000    1.00000      0.900    0    0    0    0    0    0    0    0
Expressions        :   #IntEval  IntEvalTi   #RevProp  RevPropTi    DomReds    Cutoffs  #Estimate  EstimTime  Branching  #Simplify SimplifyTi Simplified
  pow              :          0       0.00          0       0.00          0          0          0       0.00          0          0       0.00          0
  prod             :      17820       0.01          0       0.00          0          0          0       0.00          0      10091       0.02          0
  sum              :          8       0.00          2       0.00          0          0          0       0.00          0          3       0.07          2
  var              :       4799       0.00          0       0.00          0          0          0       0.00          0      21714       0.02          0
  varidx           :          0       0.00          0       0.00          0          0          0       0.00          0          0       0.00          0
LP                 :       Time      Calls Iterations  Iter/call   Iter/sec  Time-0-It Calls-0-It    ItLimit
  primal LP        :      96.93      29577          0       0.00       0.00      96.85      29577
  dual LP          :    1306.77     859693    6876233       9.36    5262.01      43.57     124681
  lex dual LP      :       0.00          0          0       0.00          -
  barrier LP       :       0.00          0          0       0.00          -       0.00          0
  resolve instable :       0.00          0          0       0.00          -
  diving/probing LP:     311.41      26715    3667516     137.28   11777.13
  strong branching :       6.11        818      50067      61.21    8194.27          -          -        481
    (at root node) :          -         20       3159     157.95          -
  conflict analysis:       7.57       7252      67352       9.29    8897.23
NLP relaxation     :
  solve time       :      11.35 (8 calls)
  convexity        :  nonconvex (145 linear rows, 0 convex ineq., 0 nonconvex ineq., 1181 nonlinear eq. or two-sided ineq.)
NLP Solvers        :  #Problems  ProblemTi    #Solves  SolveTime      #Iter  Time/Iter      #Okay #TimeLimit #IterLimit #LObjLimit #Interrupt  #NumError #EvalError  #OutOfMem #LicenseEr #OtherTerm   #GlobOpt    #LocOpt  #Feasible #LocInfeas #GlobInfea #Unbounded   #Unknown
  ipopt            :         12      21.14         45      73.72       1698       0.04         43          0          2          0          0          0          0          0          0          0          0         27          0         16          0          0          2
B&B Tree           :
  number of runs   :          1
  nodes            :     701536 (455241 internal, 246295 leaves)
  feasible leaves  :          0
  infeas. leaves   :       1622
  objective leaves :     244673
  nodes (total)    :     701536 (455241 internal, 246295 leaves)
  nodes left       :     208687
  max depth        :         78
  max depth (total):         78
  backtracks       :     143581 (20.5%)
  early backtracks :          0 (0.0%)
  nodes exc. ref.  :          0 (0.0%)
  delayed cutoffs  :          5
  repropagations   :         69 (937 domain reductions, 1 cutoffs)
  avg switch length:       7.34
  switching time   :     259.46
Estim. Tree Size   :    1403590
Estimation Tree    : 910483 nodes (701795 visited, 455241 internal, 246554 leaves, 208688 open), weight: 0.0000 completed 0.0428
Estimations        :      estim      value      trend resolution     smooth
  wbe              :         in          -          -          -          -
  tree-profile     :         -1          -          -          -          -
  gap              :   28294515    0.60007    0.00001        256   28434958
  tree-weight      :    1403590    0.00000    0.00000        256    1402839
  leaf-frequency   :    1403590    0.35132   -0.00002        256    1402839
  ssg              :   53219313    0.93248   -0.00001        256   53105609
  open-nodes       :    1403590 208688.00000  232.31705        256    1402839
Root Node          :
  First LP value   : -5.55465768799102e+00
  First LP Iters   :       2240 (11789.47 Iter/sec)
  First LP Time    :       0.19
  Final Dual Bound : -5.42783255567618e+00
  Final Root Iters :       2839
  Root LP Estimate : -2.15749293865665e+00
Solution           :
  Solutions found  :        104 (9 improvements)
  First Solution   : +1.00000000000000e+05   (in run 1, after 0 nodes, 0.06 seconds, depth 0, found by <trivial>)
  Gap First Sol.   :   infinite
  Gap Last Sol.    :      75.00 %
  Primal Bound     : -2.95173961840635e+00   (in run 1, after 27708 nodes, 293.49 seconds, depth 91, found by <linesearchdiving>)
  Dual Bound       : -4.91898397950204e+00
  Gap              :      66.65 %
Integrals          :      Total       Avg%
  primal-dual      :  147757.18      41.04
  primal-ref       :          -          - (not evaluated)
  dual-ref         :          -          - (not evaluated)
